67 62 134 110 138 145 41 23 96 102 156 169 196 141 114 11 8 2 115 22 31 140 190 117 37 182 50 135 130 81 3 125 30 48 123 56 59 143 26 12 148 33 195 121 61 36 43 24 144 147 85 185 162 54 4 106 17 94 101 153 68 71 112 44 1 191 181 27 18 63 150 47 120 51 183 160 80 179 180 92 124 6 77 99 116 177 34 82 5 157 10 142 107 167 97 16 175 69 131 21 189 163 133 87 74 194 105 86 136 187 65 58 149 32 7 186 103 25 75 13 90 192 198 158 66 197 57 127 128 84 126 40 165 108 14 72 79 155 53 78 173 29 118 19 39 91 146 49 122 88 154 178 9 104 119 151 93 129 76 170 42 132 98 38 161 152 199 139 164 83 159 171 100 172 0 60 176 52 174 73 113 89 20 55 46 188 95 70 64 35 111 45 137 109 166 168 15 28 184 193